\ENCODING=ISO-8859-1
\Problem name: ilog.cplex

Minimize
 obj: s0 + 491.52 q0 + s1 + 491.52 q1 + s2 + 491.52 q2 + s3 + 491.52 q3 + s4
      + 491.52 q4 + s5 + 491.52 q5 + s6 + 491.52 q6 + s7 + 491.52 q7 + s8
      + 491.52 q8 + s9 + 491.52 q9 + s10 + 491.52 q10 + s11 + 491.52 q11 + s12
      + 491.52 q12 + s13 + 491.52 q13
Subject To
 (9):  - s6 - 491.52 q6 + s9 + 491.52 q9 >= -50
 (9):  - s6 - 491.52 q6 + s10 + 491.52 q10 >= -633
 (9):  s6 + 491.52 q6 - s7 - 491.52 q7 >= 32
 (9):  s7 + 491.52 q7 - s8 - 491.52 q8 >= 16
 (9):  s7 + 491.52 q7 - s9 - 491.52 q9 >= 16
 (9):  s8 + 491.52 q8 - s10 - 491.52 q10 >= 16
 (9):  - s11 - 491.52 q11 + s13 + 491.52 q13 >= -775
 (9):  s11 + 491.52 q11 - s12 - 491.52 q12 >= 32
 (9):  s12 + 491.52 q12 - s13 - 491.52 q13 >= 16
 (10): - s0 + s7 >= 0
 (10): - s0 + s12 >= 0
 (10): - s1 + s8 >= 0
 (10): - s1 + s11 >= 0
 (10): - s2 + s6 >= 0
 (10): - s2 + s13 >= 0
 (10): - s3 + s9 >= 0
 (10): - s5 + s10 >= 0
 (10): s2 - s6 >= 0
 (10): s0 - s7 >= 0
 (10): s1 - s8 >= 0
 (10): s3 - s9 >= 0
 (10): s5 - s10 >= 0
 (10): s1 - s11 >= 0
 (10): s0 - s12 >= 0
 (10): s2 - s13 >= 0
 (11): - s0 + s1 + 491.52 x1 >= 16
 (12): - s0 + s1 + 491.52 x1 <= 459.52
 (11): - s0 + s2 + 491.52 x2 >= 16
 (12): - s0 + s2 + 491.52 x2 <= 459.52
 (11): - s0 + s3 + 491.52 x3 >= 16
 (12): - s0 + s3 + 491.52 x3 <= 459.52
 (11): - s0 + s5 + 491.52 x4 >= 16
 (12): - s0 + s5 + 491.52 x4 <= 459.52
 (11): - s1 + s2 + 491.52 x5 >= 16
 (12): - s1 + s2 + 491.52 x5 <= 475.52
 (11): - s1 + s3 + 491.52 x6 >= 16
 (12): - s1 + s3 + 491.52 x6 <= 475.52
 (11): - s1 + s5 + 491.52 x7 >= 16
 (12): - s1 + s5 + 491.52 x7 <= 475.52
 (11): - s2 + s3 + 491.52 x8 >= 16
 (12): - s2 + s3 + 491.52 x8 <= 475.52
 (11): - s2 + s5 + 491.52 x9 >= 16
 (12): - s2 + s5 + 491.52 x9 <= 475.52
Bounds
 0 <= s0 <= 459
      q0 >= 0
 0 <= s1 <= 475
      q1 >= 0
 0 <= s2 <= 475
      q2 >= 0
 0 <= s3 <= 475
      q3 >= 0
 0 <= s4 <= 491
      q4 >= 0
 0 <= s5 <= 475
      q5 >= 0
 0 <= s6 <= 491
      q6 >= 0
 0 <= s7 <= 491
      q7 >= 0
 0 <= s8 <= 491
      q8 >= 0
 0 <= s9 <= 491
      q9 >= 0
 0 <= s10 <= 491
      q10 >= 0
 0 <= s11 <= 491
      q11 >= 0
 0 <= s12 <= 491
      q12 >= 0
 0 <= s13 <= 491
      q13 >= 0
 0 <= x1 <= 1
 0 <= x2 <= 1
 0 <= x3 <= 1
 0 <= x4 <= 1
 0 <= x5 <= 1
 0 <= x6 <= 1
 0 <= x7 <= 1
 0 <= x8 <= 1
 0 <= x9 <= 1
Binaries
 x1  x2  x3  x4  x5  x6  x7  x8  x9 
Generals
 s0  q0  s1  q1  s2  q2  s3  q3  s4  q4  s5  q5  s6  q6  s7  q7  s8  q8  s9 
 q9  s10  q10  s11  q11  s12  q12  s13  q13 
End
